2
150 2
65
1 1 1
2 1 1
3 1 1
4 1 1
5 1 1
6 1 1
8 1 1
9 1 1
10 1 1
13 1 2
14 1 1
15 1 1
17 1 1
19 1 1
20 1 1
21 1 1
22 1 2
23 1 3
25 1 3
27 1 2
28 1 1
29 1 1
30 1 2
32 1 3
37 1 2
38 1 1
42 1 1
44 1 2
47 1 2
48 1 1
49 1 2
50 1 1
51 1 2
52 1 1
53 1 1
54 1 1
55 1 1
57 1 2
58 1 1
59 1 1
60 1 1
62 1 3
63 1 3
65 1 1
69 1 2
70 1 1
73 1 2
75 1 2
76 1 2
77 1 2
78 1 1
80 1 1
81 1 2
83 1 2
84 1 1
85 1 2
86 1 3
87 1 3
89 1 1
91 1 2
93 1 1
94 1 1
98 1 3
99 1 1
100 1 1
